[[1859,3367,9873],[713,2067,3079,4745,5539,7422,8109,8646,9680],[817,1598,2151,3490,5749,7443,9449,9619,9684],[1030,2523,3010,4531,6067,6757,7740,8368,9974],[28,1875,2223,2626,3881,4985,5474,9435,9489,9984],[190,1361,2594,3837,4472,5566,6591,7379,8034,9976],[284,921,2677,3435,4163,5466,6394,8147,8785,9728],[585,1359,2901,4199,4560,6481,6677,7454,7626,8158],[664,1775,2576,2927,4307,4874,7048,8009,8397,9423],[1193,1456,2245,3069,4699,5112,6671,8241,8512,8802],[1194,1683,3016,3572,4517,5029,5745,6666,8924,9654]]